speck_results/milp_results/speck_block_cipher_p32_k64_o32/key_greater/round_2/result_-1.txt
% Generated FlatZinc statistics:
%%%mzn-stat: paths=0
%%%mzn-stat: flatBoolVars=1118
%%%mzn-stat: flatIntVars=442
%%%mzn-stat: flatBoolConstraints=9
%%%mzn-stat: flatIntConstraints=1129
%%%mzn-stat: evaluatedReifiedConstraints=1109
%%%mzn-stat: method="minimize"
%%%mzn-stat: flatTime=0.0834216
%%%mzn-stat-end

speck_k64_p32_o32_r2, and window_size=-1
carries modadd_0_1:[0, 0, 0, 0, 0, 0, 0, 0, 0, 0, 0, 0, 0, 0, 0, 0]
intermediate_output_0_6_input:[0, 0, 0, 0, 0, 0, 0, 0, 0, 0, 0, 0, 0, 0, 0, 0, 0, 0, 0, 0, 0, 0, 0, 0, 0, 0, 0, 0, 0, 0, 0, 0]
carries modadd_1_2:[0, 0, 0, 0, 0, 0, 0, 0, 0, 0, 0, 0, 0, 0, 0, 0]
carries modadd_1_7:[0, 0, 0, 0, 0, 0, 0, 0, 0, 0, 0, 0, 0, 0, 0, 0]
cipher_output_1_12_input:[0, 0, 0, 0, 0, 0, 0, 0, 0, 0, 0, 0, 0, 0, 0, 0, 0, 0, 0, 0, 0, 0, 0, 0, 0, 0, 0, 0, 0, 0, 0, 0]
Probability: 0
% time elapsed: 0.17 s
----------
==========
% time elapsed: 0.18 s
%%%mzn-stat: nSolutions=1
%%%mzn-stat-end
